Maximize
  0 x0 - 15 x1 + 0 x2 + 19 x3 + 0 x4 - 17 x5 + 25 x6 + 0 x7 + 0 x8 + 0 x9
   + 0 x10 + 0 x11 + 0 x12 - 11 x13 + 0 x14 + 0 x15 + 0 x16 + 0 x17 + 0 x18
   + 0 x19 + 0 x20 + 0 x21 + 0 x22 + 0 x23 + 0 x24 + 0 x25 + 0 x26 + 0 x27
   + 28 x28 + 0 x29 + 0 x30 - 6 x31 + 0 x32 + 0 x33 + 0 x34 + 0 x35 + 0 x36
   + 3 x37 + 22 x38 + 0 x39 + [ - 66 x0 * x1 + 18 x0 * x3 - 12 x0 * x5
   + 32 x0 * x10 + 86 x0 * x12 - 72 x0 * x13 - 42 x0 * x14 + 22 x0 * x15
   - 86 x0 * x19 - 68 x0 * x24 + 6 x0 * x27 - 96 x0 * x29 + 86 x0 * x30
   - 86 x0 * x38 - 70 x1 * x3 - 40 x1 * x5 - 52 x1 * x13 - 94 x1 * x14
   - 30 x1 * x17 - 34 x1 * x22 + 22 x1 * x24 - 42 x1 * x31 + 82 x1 * x33
   - 82 x1 * x39 + 26 x2 * x3 - 52 x2 * x8 + 6 x2 * x9 + 58 x2 * x10
   - 16 x2 * x12 + 88 x2 * x19 + 84 x2 * x25 - 64 x2 * x29 + 96 x2 * x31
   - 48 x2 * x32 - 90 x2 * x33 - 84 x2 * x38 + 90 x2 * x39 - 39 x3 ^2
   - 74 x3 * x9 - 16 x3 * x12 - 98 x3 * x14 + 58 x3 * x15 - 56 x3 * x16
   + 58 x3 * x18 - 50 x3 * x23 + 88 x3 * x24 - 90 x3 * x29 - 68 x3 * x31
   - 70 x3 * x34 - 58 x3 * x37 - 58 x3 * x38 - 40 x4 ^2 - 66 x4 * x7
   - 26 x4 * x9 - 80 x4 * x13 - 92 x4 * x22 - 68 x4 * x25 + 90 x4 * x26
   + 86 x4 * x35 - 16 x4 * x36 - 62 x4 * x37 - 18 x5 ^2 + 30 x5 * x6
   + 16 x5 * x7 - 4 x5 * x8 + 68 x5 * x11 - 82 x5 * x13 - 14 x5 * x26
   + 76 x5 * x27 - 2 x5 * x31 + 28 x5 * x32 - 38 x5 * x33 - 98 x5 * x35
   - 62 x5 * x37 - 82 x6 * x8 - 52 x6 * x11 + 36 x6 * x13 - 98 x6 * x17
   - 52 x6 * x20 - 92 x6 * x24 + 4 x6 * x34 - 58 x6 * x36 - 86 x7 * x18
   + 70 x7 * x23 + 74 x7 * x31 + 18 x7 * x36 + 94 x7 * x37 - 94 x7 * x38
   - 68 x8 * x9 - 92 x8 * x14 - 36 x8 * x18 - 18 x8 * x20 - 20 x8 * x33
   - 34 x8 * x38 - 82 x9 * x11 + 32 x9 * x12 + 52 x9 * x23 - 10 x9 * x27
   + 10 x9 * x28 + 92 x9 * x38 - 90 x10 * x16 - 74 x10 * x21 + 28 x10 * x22
   - 36 x10 * x30 + 40 x10 * x31 - 4 x10 * x33 - 94 x10 * x38 + 27 x11 ^2
   - 64 x11 * x17 - 52 x11 * x18 - 96 x11 * x25 - 68 x11 * x27
   - 70 x11 * x29 + 86 x11 * x33 - 26 x11 * x38 + 26 x12 * x13
   - 12 x12 * x15 - 26 x12 * x22 + 42 x12 * x23 + 56 x12 * x25
   + 36 x12 * x26 + 18 x12 * x33 - 42 x13 * x17 + 46 x13 * x19
   - 18 x13 * x20 + 78 x13 * x23 - 74 x13 * x24 - 16 x13 * x27
   - 90 x13 * x35 - 24 x13 * x38 + 68 x14 * x17 - 62 x14 * x18
   + 10 x14 * x21 + 22 x14 * x23 - 36 x14 * x29 - 54 x14 * x34
   + 22 x14 * x37 + 54 x14 * x39 + 76 x15 * x21 - 74 x15 * x25
   - 70 x15 * x27 + 16 x15 * x30 - 2 x15 * x31 - 98 x15 * x37
   - 30 x16 * x23 + 12 x16 * x26 - 34 x16 * x28 + 78 x16 * x30
   - 40 x16 * x31 + 6 x16 * x33 - 98 x16 * x35 - 86 x16 * x38 + 37 x17 ^2
   + 96 x17 * x18 - 32 x17 * x24 + 26 x17 * x35 - 32 x17 * x38
   + 4 x18 * x23 + 32 x18 * x32 - 12 x18 * x38 - 54 x19 * x28 + 4 x19 * x30
   + 92 x19 * x34 - 24 x19 * x38 + 40 x20 ^2 + 24 x20 * x22 - 32 x20 * x23
   - 16 x20 * x24 - 20 x20 * x25 + 38 x20 * x37 + 32 x20 * x38
   + 28 x21 * x24 + 26 x21 * x25 - 4 x21 * x26 + 22 x21 * x27
   - 20 x21 * x28 - 48 x21 * x30 - 20 x21 * x31 - 16 x21 * x32
   - 32 x21 * x33 + 16 x21 * x38 + 31 x22 ^2 + 78 x22 * x23 + 8 x22 * x25
   + 90 x22 * x26 + 60 x22 * x35 + 42 x23 ^2 - 50 x23 * x25 - 96 x23 * x27
   - 16 x23 * x28 + 74 x23 * x34 - 86 x23 * x35 + 16 x23 * x37 + 26 x24 ^2
   + 68 x24 * x25 - 32 x24 * x39 - 80 x25 * x27 - 84 x25 * x32
   - 34 x25 * x38 + 48 x26 * x28 - 62 x26 * x30 + 48 x26 * x31
   + 50 x26 * x33 - 72 x26 * x35 - 94 x26 * x36 + 94 x26 * x38 + 26 x28 ^2
   + 12 x28 * x29 - 32 x28 * x31 - 62 x28 * x34 - 52 x28 * x38 + 15 x29 ^2
   - 20 x29 * x30 - 58 x29 * x36 - 72 x29 * x37 - 64 x29 * x38
   - 78 x29 * x39 - 40 x30 * x32 - 52 x30 * x35 - 3 x31 ^2 + 18 x31 * x33
   - 44 x31 * x36 + 72 x31 * x37 - 44 x32 ^2 + 12 x32 * x36 - 20 x32 * x38
   - 24 x33 ^2 - 70 x33 * x38 + 70 x33 * x39 - 42 x34 * x37 - 70 x34 * x39
   + 20 x37 ^2 + 32 x39 ^2 ] / 2 
Subject To
Bounds
 x0 <= 1
 x1 <= 1
 x2 <= 1
 x3 <= 1
 x4 <= 1
 x5 <= 1
 x6 <= 1
 x7 <= 1
 x8 <= 1
 x9 <= 1
 x10 <= 1
 x11 <= 1
 x12 <= 1
 x13 <= 1
 x14 <= 1
 x15 <= 1
 x16 <= 1
 x17 <= 1
 x18 <= 1
 x19 <= 1
 x20 <= 1
 x21 <= 1
 x22 <= 1
 x23 <= 1
 x24 <= 1
 x25 <= 1
 x26 <= 1
 x27 <= 1
 x28 <= 1
 x29 <= 1
 x30 <= 1
 x31 <= 1
 x32 <= 1
 x33 <= 1
 x34 <= 1
 x35 <= 1
 x36 <= 1
 x37 <= 1
 x38 <= 1
 x39 <= 1
End
